instances/shortest_path/discrete/shortest_path_5_11.lp
\ Model nohadani_5_11
\ LP format - for model browsing. Use MPS format to capture full model detail.
\ Signature: 0xa1d49c5c4aa7c587
Minimize
  54.48853090330111 y[0,2] + 21.93171219946131 y[0,3] + 9 y[0,4]
   + 57.0350769263968 y[1,2] + 88.68483523128404 y[1,3]
   + 54.48853090330111 y[2,0] + 57.0350769263968 y[2,1]
   + 50.15974481593781 y[2,3] + 48.27007354458868 y[2,4]
   + 21.93171219946131 y[3,0] + 88.68483523128404 y[3,1]
   + 50.15974481593781 y[3,2] + 14.2126704035519 y[3,4] + 9 y[4,0]
   + 48.27007354458868 y[4,2] + 14.2126704035519 y[4,3] + x[0,2] + x[0,3]
   + x[0,4] + x[1,2] + x[1,3] + x[2,0] + x[2,1] + x[2,3] + x[2,4] + x[3,0]
   + x[3,1] + x[3,2] + x[3,4] + x[4,0] + x[4,2] + x[4,3]
   + 5.448853090330111 r[0,2] + 2.193171219946131 r[0,3] + 0.9 r[0,4]
   + 5.70350769263968 r[1,2] + 8.868483523128404 r[1,3]
   + 5.448853090330111 r[2,0] + 5.70350769263968 r[2,1]
   + 5.015974481593782 r[2,3] + 4.827007354458869 r[2,4]
   + 2.193171219946131 r[3,0] + 8.868483523128404 r[3,1]
   + 5.015974481593782 r[3,2] + 1.42126704035519 r[3,4] + 0.9 r[4,0]
   + 4.827007354458869 r[4,2] + 1.42126704035519 r[4,3]
Subject To
 flow_cons_inner_nodes[2]: y[0,2] + y[1,2] - y[2,0] - y[2,1] - y[2,3]
   - y[2,4] + y[3,2] + y[4,2] = 0
 flow_cons_inner_nodes[3]: y[0,3] + y[1,3] + y[2,3] - y[3,0] - y[3,1]
   - y[3,2] - y[3,4] + y[4,3] = 0
 flow_cons_inner_nodes[4]: y[0,4] + y[2,4] + y[3,4] - y[4,0] - y[4,2]
   - y[4,3] = 0
 flow_cons_source: y[0,2] + y[0,3] + y[0,4] - y[2,0] - y[3,0] - y[4,0] = 1
 flow_cons_target: - y[1,2] - y[1,3] + y[2,1] + y[3,1] = 1
 primal_lower: 6.114223568307176 x[0,2] + 1.833509017990549 x[0,3]
   + 4.841752385137874 x[0,4] + 1.92222543388206 x[1,2]
   + 4.543349909210919 x[1,3] + 3.806750933753899 x[2,0]
   + 3.17473197699583 x[2,1] + 2.999252706525882 x[2,3]
   + 4.383204619784313 x[2,4] + 4.468456576670258 x[3,0]
   + 5.321613611460102 x[3,1] + 0.9702813006626021 x[3,2]
   + 1.893892979966848 x[3,4] + 0.9216411313792272 x[4,0]
   + 6.110216215304117 x[4,2] + 5.827712779461034 x[4,3] + 35 u[0,2]
   + 75 u[0,3] + 93 u[0,4] + 34 u[1,2] + 35 u[1,3] + 17 u[2,0] + 36 u[2,1]
   + 99 u[2,3] + 52 u[2,4] + 65 u[3,0] + 67 u[3,1] + 78 u[3,2] + 87 u[3,4]
   + 55 u[4,0] + 56 u[4,2] + 24 u[4,3] <= 99
 mccormick1[0,2]: - u[0,2] + r[0,2] <= 0
 mccormick1[0,3]: - u[0,3] + r[0,3] <= 0
 mccormick1[0,4]: - u[0,4] + r[0,4] <= 0
 mccormick1[1,2]: - u[1,2] + r[1,2] <= 0
 mccormick1[1,3]: - u[1,3] + r[1,3] <= 0
 mccormick1[2,0]: - u[2,0] + r[2,0] <= 0
 mccormick1[2,1]: - u[2,1] + r[2,1] <= 0
 mccormick1[2,3]: - u[2,3] + r[2,3] <= 0
 mccormick1[2,4]: - u[2,4] + r[2,4] <= 0
 mccormick1[3,0]: - u[3,0] + r[3,0] <= 0
 mccormick1[3,1]: - u[3,1] + r[3,1] <= 0
 mccormick1[3,2]: - u[3,2] + r[3,2] <= 0
 mccormick1[3,4]: - u[3,4] + r[3,4] <= 0
 mccormick1[4,0]: - u[4,0] + r[4,0] <= 0
 mccormick1[4,2]: - u[4,2] + r[4,2] <= 0
 mccormick1[4,3]: - u[4,3] + r[4,3] <= 0
 mccormick2[0,2]: - y[0,2] + r[0,2] <= 0
 mccormick2[0,3]: - y[0,3] + r[0,3] <= 0
 mccormick2[0,4]: - y[0,4] + r[0,4] <= 0
 mccormick2[1,2]: - y[1,2] + r[1,2] <= 0
 mccormick2[1,3]: - y[1,3] + r[1,3] <= 0
 mccormick2[2,0]: - y[2,0] + r[2,0] <= 0
 mccormick2[2,1]: - y[2,1] + r[2,1] <= 0
 mccormick2[2,3]: - y[2,3] + r[2,3] <= 0
 mccormick2[2,4]: - y[2,4] + r[2,4] <= 0
 mccormick2[3,0]: - y[3,0] + r[3,0] <= 0
 mccormick2[3,1]: - y[3,1] + r[3,1] <= 0
 mccormick2[3,2]: - y[3,2] + r[3,2] <= 0
 mccormick2[3,4]: - y[3,4] + r[3,4] <= 0
 mccormick2[4,0]: - y[4,0] + r[4,0] <= 0
 mccormick2[4,2]: - y[4,2] + r[4,2] <= 0
 mccormick2[4,3]: - y[4,3] + r[4,3] <= 0
 mccormick3[0,2]: - y[0,2] - u[0,2] + r[0,2] >= -1
 mccormick3[0,3]: - y[0,3] - u[0,3] + r[0,3] >= -1
 mccormick3[0,4]: - y[0,4] - u[0,4] + r[0,4] >= -1
 mccormick3[1,2]: - y[1,2] - u[1,2] + r[1,2] >= -1
 mccormick3[1,3]: - y[1,3] - u[1,3] + r[1,3] >= -1
 mccormick3[2,0]: - y[2,0] - u[2,0] + r[2,0] >= -1
 mccormick3[2,1]: - y[2,1] - u[2,1] + r[2,1] >= -1
 mccormick3[2,3]: - y[2,3] - u[2,3] + r[2,3] >= -1
 mccormick3[2,4]: - y[2,4] - u[2,4] + r[2,4] >= -1
 mccormick3[3,0]: - y[3,0] - u[3,0] + r[3,0] >= -1
 mccormick3[3,1]: - y[3,1] - u[3,1] + r[3,1] >= -1
 mccormick3[3,2]: - y[3,2] - u[3,2] + r[3,2] >= -1
 mccormick3[3,4]: - y[3,4] - u[3,4] + r[3,4] >= -1
 mccormick3[4,0]: - y[4,0] - u[4,0] + r[4,0] >= -1
 mccormick3[4,2]: - y[4,2] - u[4,2] + r[4,2] >= -1
 mccormick3[4,3]: - y[4,3] - u[4,3] + r[4,3] >= -1
Bounds
Binaries
 y[0,2] y[0,3] y[0,4] y[1,2] y[1,3] y[2,0] y[2,1] y[2,3] y[2,4] y[3,0]
 y[3,1] y[3,2] y[3,4] y[4,0] y[4,2] y[4,3] x[0,2] x[0,3] x[0,4] x[1,2]
 x[1,3] x[2,0] x[2,1] x[2,3] x[2,4] x[3,0] x[3,1] x[3,2] x[3,4] x[4,0]
 x[4,2] x[4,3] u[0,2] u[0,3] u[0,4] u[1,2] u[1,3] u[2,0] u[2,1] u[2,3]
 u[2,4] u[3,0] u[3,1] u[3,2] u[3,4] u[4,0] u[4,2] u[4,3] r[0,2] r[0,3]
 r[0,4] r[1,2] r[1,3] r[2,0] r[2,1] r[2,3] r[2,4] r[3,0] r[3,1] r[3,2]
 r[3,4] r[4,0] r[4,2] r[4,3]
End
