instances/shortest_path/discrete/shortest_path_5_11.kp
62912
99

[6.1142235683071755 1.833509017990549 4.841752385137874 1.9222254338820597 4.543349909210919 3.806750933753899 3.1747319769958304 2.9992527065258816 4.383204619784313 4.468456576670258 5.321613611460102 0.9702813006626021 1.8938929799668485 0.9216411313792272 6.110216215304117 5.827712779461034]

[35 75 93 34 35 17 36 99 52 65 67 78 87 55 56 24]
